  0 144 114 105  31 109 135 132  85  79
144   0 144 181 147  76 195  73  64 114
114 144   0  49  86 169  51  78 130  42
105 181  49   0  73 189  31 124 152  67
 31 147  86  73   0 128 104 119  97  57
109  76 169 189 128   0 212 126  38 128
135 195  51  31 104 212   0 129 174  85
132  73  78 124 119 126 129   0  92  65
 85  64 130 152  97  38 174  92   0  90
 79 114  42  67  57 128  85  65  90   0
